1 2
2 2
3 2
4 2
5 1
6 2
7 2
8 1
9 2
10 1
11 2
12 2
13 2
14 2
15 1
16 2
17 1
18 1
19 1
20 1
21 1
22 1
23 1
24 2
25 2
26 1
27 2
28 1
29 1
30 2
31 1
32 1
33 1
34 1
35 1
36 1
37 1
38 2
39 2
40 1
41 2
42 2
43 2
44 2
45 1
46 1
47 1
48 1
49 1
50 2
51 1
52 1
53 1
54 2
55 2
56 1
57 1
58 2
59 2
60 2
61 1
62 1
63 2
64 2
65 2
66 1
67 1
68 1
69 2
70 2
71 1
72 1
73 2
74 2
75 2
76 1
77 2
78 1
79 1
80 1
81 1
82 2
83 1
84 1
85 1
86 1
87 1
88 2
89 1
90 1
91 2
92 1
93 1
94 1
95 2
96 1
97 2
98 2
99 1
100 1
101 2
102 1
103 1
104 2
105 2
106 2
107 2
108 2
109 2
110 2
111 2
112 2
113 2
114 1
115 2
116 1
117 1
118 1
119 1
120 1
121 2
122 1
123 2
124 1
125 2
126 1
127 1
128 1
129 1
130 2
131 2
132 1
133 2
134 1
135 1
136 2
137 2
138 2
139 1
140 1
141 2
142 1
143 2
144 1
145 1
146 2
147 1
148 2
149 2
150 2
151 1
152 2
153 1
154 2
155 2
156 1
157 1
158 2
159 1
160 1
161 2
162 1
163 1
164 1
165 1
166 2
167 1
168 2
169 2
170 2
171 1
172 2
173 2
174 1
175 2
176 2
177 2
178 1
179 1
180 2
181 2
182 2
183 2
184 1
185 1
186 1
187 1
188 1
189 2
190 1
191 2
192 1
193 1
194 2
195 2
196 1
197 1
198 1
199 1
200 1
201 1
202 1
203 1
204 2
205 2
206 1
207 1
208 2
209 2
210 2
211 1
212 2
213 1
214 2
215 2
216 1
217 1
218 1
219 1
220 1
221 1
222 2
223 2
224 2
225 1
226 1
227 1
228 2
229 2
230 2
231 1
232 1
233 2
234 1
235 1
236 1
237 1
238 1
239 2
240 1
241 1
242 2
243 1
244 2
245 2
246 2
247 1
248 2
249 1
250 2
251 1
252 2
253 1
254 1
255 2
256 2
257 1
258 2
259 1
260 2
261 1
262 1
263 1
264 2
265 2
266 2
267 2
268 1
269 2
270 1
271 2
272 1
273 1
274 2
275 2
276 2
277 2
278 2
279 2
280 1
281 1
282 2
283 2
284 2
285 1
286 2
287 1
288 1
289 2
290 2
291 2
292 2
293 2
294 2
295 1
296 2
297 2
298 2
299 2
300 2
301 1
302 2
303 1
304 1
305 2
306 1
307 2
308 1
309 2
310 1
311 2
312 2
313 1
314 1
315 1
316 2
317 2
318 1
319 1
320 2
321 2
322 1
323 2
324 1
325 1
326 1
327 2
328 1
329 2
330 1
331 2
332 1
333 2
334 1
335 2
336 2
337 2
338 1
339 1
340 2
341 2
342 1
343 2
344 2
345 1
346 1
347 1
348 1
349 1
350 1
351 2
352 1
353 1
354 2
355 2
356 2
357 1
358 1
359 2
360 2
361 1
362 1
363 2
364 1
365 2
366 1
367 1
368 1
369 2
370 1
371 1
372 2
373 1
374 1
375 2
376 2
377 2
378 2
379 2
380 2
381 2
382 2
383 2
384 2
385 1
386 1
387 2
388 1
389 1
390 1
391 2
392 2
393 1
394 2
395 2
396 1
397 2
398 2
399 1
400 1
401 2
402 1
403 2
404 2
405 1
406 2
407 1
408 2
409 1
410 1
411 2
412 2
413 2
414 2
415 2
416 2
417 1
418 2
419 1
420 1
421 2
422 1
423 1
424 1
425 1
426 1
427 2
428 2
429 2
430 1
431 1
432 2
433 2
434 2
435 1
436 2
437 2
438 2
439 2
440 1
441 1
442 1
443 1
444 1
445 1
446 2
447 2
448 1
449 1
450 1
451 2
452 1
453 2
454 1
455 2
456 1
457 1
458 1
459 1
460 1
461 2
462 1
463 1
464 1
465 2
466 1
467 1
468 2
469 1
470 1
471 1
472 2
473 2
474 1
475 2
476 1
477 1
478 2
479 2
480 2
481 1
482 1
483 2
484 1
485 2
486 1
487 1
488 1
489 1
490 1
491 2
492 1
493 1
494 1
495 2
496 2
497 1
498 2
499 1
500 2
501 1
502 1
503 2
504 2
505 1
506 2
507 2
508 2
509 1
510 1
511 1
512 1
513 2
514 2
515 2
516 1
517 2
518 2
519 1
520 1
521 1
522 2
523 2
524 1
525 2
526 1
527 1
528 2
529 1
530 1
531 2
532 1
533 1
534 1
535 1
536 2
537 1
538 1
539 2
540 1
541 2
542 2
543 2
544 2
545 1
546 2
547 1
548 1
549 2
550 1
551 2
552 2
553 1
554 2
555 1
556 1
557 2
558 2
559 1
560 2
561 2
562 2
563 1
564 2
565 1
566 1
567 2
568 2
569 2
570 2
571 1
572 1
573 2
574 1
575 1
576 1
577 2
578 1
579 1
580 2
581 2
582 2
583 1
584 1
585 2
586 2
587 2
588 2
589 1
590 1
591 1
592 2
593 2
594 2
595 1
596 1
597 1
598 2
599 1
600 2
601 1
602 2
603 2
604 2
605 2
606 1
607 2
608 2
609 1
610 1
611 1
612 1
613 2
614 2
615 2
616 1
617 2
618 1
619 2
620 1
621 1
622 1
623 2
624 2
625 1
626 2
627 1
628 2
629 1
630 1
631 2
632 2
633 2
634 1
635 1
636 1
637 1
638 1
639 2
640 1
641 2
642 2
643 2
644 2
645 1
646 1
647 1
648 2
649 1
650 1
651 1
652 2
653 2
654 2
655 2
656 1
657 2
658 2
659 2
660 2
661 1
662 1
663 1
664 2
665 1
666 1
667 1
668 2
669 1
670 2
671 2
672 1
673 2
674 1
675 2
676 1
677 2
678 2
679 1
680 1
681 1
682 2
683 1
684 2
685 2
686 2
687 1
688 1
689 1
690 1
691 2
692 2
693 2
694 2
695 1
696 1
697 1
698 1
699 2
700 2
701 1
702 1
703 1
704 2
705 2
706 1
707 2
708 2
709 1
710 1
711 1
712 1
713 1
714 2
715 2
716 2
717 1
718 1
719 2
720 1
721 1
722 1
723 2
724 1
725 2
726 1
727 1
728 1
729 1
730 1
731 1
732 1
733 1
734 1
735 1
736 1
737 1
738 2
739 1
740 2
741 1
742 1
743 2
744 1
745 2
746 2
747 1
748 1
749 2
750 2
751 1
752 2
753 1
754 2
755 1
756 1
757 2
758 2
759 1
760 1
761 1
762 2
763 1
764 2
765 1
766 2
767 2
768 2
769 1
770 1
771 1
772 2
773 1
774 1
775 1
776 1
777 1
778 2
779 1
780 1
781 2
782 2
783 2
784 1
785 2
786 1
787 2
788 1
789 1
790 2
791 1
792 2
793 1
794 1
795 2
796 2
797 1
798 2
799 2
800 1
